
Gurobi 6.5.2 (linux64) logging started Mon Aug 29 10:57:53 2016

Optimize a model with 101 rows, 663 columns and 1443 nonzeros
Coefficient statistics:
  Matrix range    [1e+00, 2e+00]
  Objective range [1e+00, 1e+02]
  Bounds range    [1e+00, 1e+00]
  RHS range       [1e+00, 1e+00]
Found heuristic solution: objective 1967
Presolve removed 30 rows and 6 columns
Presolve time: 0.00s
Presolved: 71 rows, 657 columns, 1340 nonzeros
Variable types: 0 continuous, 657 integer (657 binary)

Root relaxation: objective 6.590000e+02, 65 iterations, 0.00 seconds

    Nodes    |    Current Node    |     Objective Bounds      |     Work
 Expl Unexpl |  Obj  Depth IntInf | Incumbent    BestBd   Gap | It/Node Time

     0     0  659.00000    0    8 1967.00000  659.00000  66.5%     -    0s
H    0     0                     865.0000000  659.00000  23.8%     -    0s
H    0     0                     721.0000000  659.00000  8.60%     -    0s
H    0     0                     678.0000000  659.00000  2.80%     -    0s
     0     0  672.00000    0   11  678.00000  672.00000  0.88%     -    0s
     0     0  672.00000    0    8  678.00000  672.00000  0.88%     -    0s
     0     0  672.00000    0   11  678.00000  672.00000  0.88%     -    0s
H    0     0                     677.0000000  672.00000  0.74%     -    0s
     0     0     cutoff    0       677.00000  676.00068  0.15%     -    0s

Cutting planes:
  Gomory: 8
  Cover: 7
  Zero half: 2

Explored 0 nodes (167 simplex iterations) in 0.02 seconds
Thread count was 8 (of 8 available processors)

Optimal solution found (tolerance 1.00e-04)
Best objective 6.770000000000e+02, best bound 6.770000000000e+02, gap 0.0%
